50

99 5 314
97 25 302
97 1 294
96 13 436
95 47 415
89 20 450
88 11 333
83 10 313
81 27 420
81 26 409
79 29 251
77 18 263
76 4 398
75 29 346
74 13 248
61 31 329
55 3 320
51 13 355
50 15 355
50 22 367
48 17 229
48 16 246
47 14 419
46 8 440
45 19 373
42 13 420
42 14 237
38 14 413
35 5 364
34 8 317
32 7 422
32 2 410
31 1 421
26 10 321
25 6 340
21 4 249
14 4 97
13 1 421
11 2 445
10 4 265
9 5 140
9 4 182
9 1 267
8 4 385
8 3 121
7 1 28
5 3 226
5 1 347
5 1 366
1 1 282
